c --- [ banner ] -------------------------------------------------------------
c 
c CaDiCaL Radically Simplified CDCL SAT Solver
c Copyright (c) 2016-2021 A. Biere, M. Fleury, N. Froleyks
c 
c Version 1.5.2 ca9bff05c11bde5eae4912f9932871d1527e61d8
c g++ (GCC) 9.3.0 -Wall -Wextra -O3 -DNDEBUG
c Thu Jul 28 23:42:48 EDT 2022 Linux gra-login3 3.10.0-1160.66.1.el7.x86_64 x86_64
c 
c --- [ limit ] --------------------------------------------------------------
c 
c setting conflict limit to 200000 conflicts (due to '200000')
c 
c --- [ parsing input ] ------------------------------------------------------
c 
c reading DIMACS file from '23.cubes67.adj'
c opening file to read '23.cubes67.adj'
c found 'p cnf 5320 914895' header
c parsed 914895 clauses in 8.28 seconds process time
c closing file '23.cubes67.adj'
c after reading 637830010 bytes 608.3 MB
c 
c --- [ options ] ------------------------------------------------------------
c 
c all options are set to their default value
c 
c --- [ solving ] ------------------------------------------------------------
c 
c time measured in process time since initialization
c 
c  seconds   reductions  redundant  irredundant
c          MB    restarts       trail      variables
c           level   conflicts       glue        remaining
c 
c *  8.28 627  0 0   0    0    0  0% 0 914847 2014 38%
c {  8.68 649  0 0   0    0    0  0% 0 914847 2014 38%
c i  8.85 653 1283 0   0    7    6 40% 1 914847 2004 38%
c i  9.81 687 708 0   3   28   25 35% 14 914847 2001 38%
c i 10.01 690 549 0   6   37   33 33% 17 914847 1995 38%
c i 10.76 696 207 0  22  124   89 26% 22 914847 1994 37%
c i 10.94 697 200 0  23  138  101 26% 26 914847 1993 37%
c i 10.95 697 198 0  24  139  101 26% 25 914847 1992 37%
c i 10.95 697 196 0  24  141  102 26% 25 914847 1991 37%
c i 11.31 698 145 0  33  212  140 24% 24 914847 1989 37%
c - 13.79 658 120 1  37  302  216 24% 25 210611 1989 37%
c i 13.89 658 118 1  38  312  224 25% 26 210611 1988 37%
c i 13.95 658 117 1  41  322  233 25% 26 210611 1987 37%
c i 13.96 658 117 1  42  324  234 25% 26 210611 1986 37%
c i 14.02 658 116 1  46  342  251 25% 28 210611 1985 37%
c i 14.03 658 115 1  47  346  254 25% 28 210611 1984 37%
c i 14.06 658 113 1  50  354  260 25% 27 210611 1983 37%
c i 14.07 658 112 1  50  355  260 25% 27 210611 1982 37%
c i 14.08 658 112 1  51  358  262 25% 27 210611 1981 37%
c i 14.08 658 112 1  51  360  263 25% 27 210611 1980 37%
c 
c  seconds    reductions  redundant   irredundant
c          MB     restarts       trail       variables
c            level   conflicts       glue         remaining
c 
c i 14.11 658 112 1  51  368  268 25% 27 210611 1978 37%
c i 14.14 658 113 1  53  375  272 25% 28 210611 1976 37%
c i 14.15 658 113 1  54  376  272 25% 28 210611 1975 37%
c i 14.17 658 112 1  55  381  276 25% 28 210611 1974 37%
c i 14.25 658 111 1  59  412  298 25% 27 210611 1973 37%
c i 14.28 658 112 1  59  420  305 25% 27 210611 1972 37%
c i 14.31 658 111 1  60  423  307 25% 28 210611 1971 37%
c i 14.32 658 111 1  61  427  309 25% 28 210611 1970 37%
c i 14.32 658 111 1  62  428  309 25% 28 210611 1969 37%
c i 14.33 658 110 1  62  431  311 25% 28 210611 1968 37%
c i 14.33 658 110 1  63  434  313 25% 28 210611 1967 37%
c i 14.33 658 110 1  64  435  313 25% 28 210611 1966 37%
c i 14.37 658 108 1  64  454  323 25% 27 210611 1965 37%
c i 14.37 658 108 1  64  455  323 25% 27 210611 1964 37%
c i 14.37 658 108 1  64  456  323 25% 27 210611 1963 37%
c i 14.37 658 107 1  64  457  323 25% 27 210611 1962 37%
c i 14.37 658 107 1  64  458  323 25% 27 210611 1961 37%
c i 14.40 658 107 1  64  467  330 25% 26 210611 1960 37%
c i 14.50 658 104 1  66  503  364 25% 27 210611 1959 37%
c i 14.55 658 101 1  67  526  382 25% 27 210611 1958 37%
c 
c  seconds    reductions  redundant   irredundant
c          MB     restarts       trail       variables
c            level   conflicts       glue         remaining
c 
c i 14.55 658 101 1  68  527  382 25% 27 210611 1957 37%
c i 14.56 658 101 1  68  531  384 25% 27 210611 1956 37%
c i 14.86 658 100 1  72  618  462 24% 26 210611 1955 37%
c i 14.89 658 99 1  72  622  465 25% 26 210611 1954 37%
c i 14.89 658 99 1  72  625  467 25% 26 210611 1953 37%
c i 14.89 658 99 1  72  626  467 25% 26 210611 1952 37%
c i 14.89 658 99 1  72  627  467 25% 26 210611 1951 37%
c i 14.90 658 98 1  72  636  475 25% 26 210611 1950 37%
c i 14.90 658 98 1  72  637  475 25% 26 210611 1949 37%
c i 14.90 658 98 1  72  641  478 25% 26 210611 1948 37%
c i 14.97 658 96 1  72  667  493 25% 26 210611 1947 37%
c i 15.01 658 95 1  72  693  512 25% 26 210611 1944 37%
c i 15.02 658 95 1  72  701  519 25% 26 210611 1943 37%
c i 15.03 658 94 1  72  709  526 25% 26 210611 1942 37%
c i 15.03 658 94 1  72  715  531 25% 26 210611 1941 36%
c i 15.03 658 93 1  72  717  531 25% 26 210611 1940 36%
c i 15.08 658 89 1  72  770  568 25% 25 210611 1939 36%
c i 15.08 658 89 1  72  773  570 25% 25 210611 1938 36%
c i 15.08 658 89 1  72  774  570 25% 25 210611 1937 36%
c i 15.08 658 89 1  72  775  570 25% 25 210611 1936 36%
c 
c  seconds   reductions  redundant   irredundant
c          MB    restarts       trail       variables
c           level   conflicts       glue         remaining
c 
c i 15.08 658 89 1  72  776  570 25% 25 210611 1935 36%
c i 15.08 658 89 1  72  777  570 25% 25 210611 1934 36%
c i 15.09 658 88 1  72  783  575 25% 25 210611 1933 36%
c i 15.09 658 88 1  72  787  578 25% 25 210611 1932 36%
c i 15.10 658 87 1  72  799  589 25% 24 210611 1931 36%
c i 15.10 658 87 1  72  800  589 25% 24 210611 1930 36%
c i 15.10 658 87 1  72  801  589 25% 24 210611 1929 36%
c i 15.17 658 82 1  72  854  629 25% 23 210611 1928 36%
c i 15.17 658 82 1  72  856  630 25% 23 210611 1927 36%
c i 15.18 658 81 1  72  866  637 25% 23 210611 1926 36%
c i 15.23 658 75 1  72  967  707 25% 23 210611 1925 36%
c i 15.25 658 74 1  72  990  725 25% 23 210611 1924 36%
c } 15.26 658 74 1  72 1002  736 25% 23 210611 1924 36%
c [ 15.26 658  0 1  72 1002  736  0% 0 210611 1924 36%
c O 15.27 658  3 1  72 1003  737 14% 3 210611 1924 36%
c - 15.85 698  4 2  72 1096  657 20% 4 210423 1924 36%
c ] 15.93 698  6 2  72 1132  677 21% 5 210423 1924 36%
c 1 15.93 698  6 2  72 1132  677 21% 5 210423 1924 36%
c 
c --- [ writing output ] -----------------------------------------------------
c 
c writing simplified CNF to DIMACS file 'simp/23.cubes67.adj.simp1'
c * 15.93 698  6 2  72 1132  677 21% 5 210423 1924 36%
c opening file to write 'simp/23.cubes67.adj.simp1'
c writing 'p cnf 5320 210423' header
c closing file 'simp/23.cubes67.adj.simp1'
c after writing 76836705 bytes 73.3 MB
c wrote 210423 clauses in 0.60 seconds process time
c 
c --- [ writing extension ] --------------------------------------------------
c 
c writing extension stack to 'simp/23.cubes67.adj.ext1'
c opening file to write 'simp/23.cubes67.adj.ext1'
c closing file 'simp/23.cubes67.adj.ext1'
c after writing 8298 bytes 0.0 MB
c wrote 559 witnesses in 0.00 seconds process time
c 
c --- [ result ] -------------------------------------------------------------
c 
s SATISFIABLE
c 
c --- [ run-time profiling ] -------------------------------------------------
c 
c process time taken by individual solving procedures
c (percentage relative to process time for solving)
c 
c         8.28  108.20% parse
c         7.65  100.00% search
c         6.57   85.92% unstable
c         0.67    8.77% stable
c         0.41    5.30% lucky
c         0.00    0.00% simplify
c   =================================
c         7.65   46.29% solve
c 
c last line shows process time for solving
c (percentage relative to total process time)
c 
c --- [ statistics ] ---------------------------------------------------------
c 
c chronological:               426        37.63 %  of conflicts
c conflicts:                  1132       147.98    per second
c decisions:                 16036      2096.25    per second
c fixed:                       559        10.51 %  of all variables
c learned:                    1090        96.29 %  per conflict
c learned_lits:              90263       100.00 %  learned literals
c minimized:                     0         0.00 %  learned literals
c shrunken:                  37595        41.65 %  learned literals
c minishrunken:               7709         8.54 %  learned literals
c propagations:             184624         0.02 M  per second
c reduced:                      92         8.13 %  per conflict
c rephased:                      1      1132.00    interval
c restarts:                     72        15.72    interval
c stabilizing:                   1        11.48 %  of conflicts
c subsumed:                    246         0.01 %  of all clauses
c 
c seconds are measured in process time for solving
c 
c --- [ resources ] ----------------------------------------------------------
c 
c total process time since initialization:        16.53    seconds
c total real time since initialization:           18.06    seconds
c maximum resident set size of process:          729.64    MB
c 
c --- [ shutting down ] ------------------------------------------------------
c 
c exit 10
WARNING! DIMACS header mismatch: wrong number of variables.
============================[ Problem Statistics ]=============================
|                                                                             |
|  Number of variables:          5282                                         |
|  Number of clauses:          210423                                         |
|  Parse time:                   1.17 s                                       |
|  Simplification time:          0.04 s                                       |
|                                                                             |
============================[ Search Statistics ]====================================================
| Conflicts |          ORIGINAL         |          LEARNT          | Num Sols |      SUBGRAPHS      |
|           |    Vars  Clauses Literals |    Limit  Clauses Lit/Cl |          | Canonical Noncanon. |
=====================================================================================================
|       149 |    5204   210472 17758900 |     2000      148     37 |        0 |        42        49 |
|       323 |    5204   210496 17759279 |     2000      322     52 |        0 |        59        73 |
|       584 |    5201   210532 17760145 |     2000      580     55 |        0 |        95       109 |
|       935 |    5198   210546 17760590 |     2000      928     61 |        0 |       115       123 |
|      1537 |    5196   210642 17762654 |     2000     1528     60 |        0 |       168       219 |
|      2432 |    5192   210778 17764653 |     3595     1424     29 |        0 |       244       355 |
|      3786 |    5192   210993 17768484 |     3595     2778     51 |        0 |       363       570 |
|      5808 |    5191   211307 17774513 |     5000     3008     40 |        0 |       477       884 |
|      8741 |    5191   211678 17785305 |     6305     3446     35 |        0 |       622      1255 |
|     13764 |    5164   212857 17805579 |     7557     5321     35 |        0 |      1249      2434 |
|     21445 |    5164   214772 17839279 |    10001     4846     24 |        0 |      1720      4349 |
|     32164 |    5164   216842 17872400 |    11207    10571     40 |        0 |      2722      6419 |
|     47999 |    5164   219703 17907762 |    14804     7803     18 |        0 |      3734      9280 |
|     71367 |    5164   223610 17961748 |    17218    15785     40 |        0 |      5340     13187 |
=====================================================================================================
Number of solutions   : 0
Canonical subgraphs   : 6798           (241 /sec)
          order  3    : 1              (111111 /sec)
          order  4    : 1              (250000 /sec)
          order  5    : 1              (125000 /sec)
          order  6    : 2              (39216 /sec)
          order  7    : 3              (16484 /sec)
          order  8    : 8              (7414 /sec)
          order  9    : 24             (3556 /sec)
          order 10    : 105            (1776 /sec)
          order 11    : 400            (967 /sec)
          order 12    : 1008           (435 /sec)
          order 13    : 2352           (277 /sec)
          order 14    : 1784           (204 /sec)
          order 15    : 620            (143 /sec)
          order 16    : 312            (128 /sec)
          order 17    : 117            (122 /sec)
          order 18    : 49             (118 /sec)
          order 19    : 7              (204 /sec)
          order 20    : 4              (271 /sec)
          order 21    : 0              (-nan /sec)
Noncanonical subgraphs: 16558          (1782 /sec)
          order  3    : 0              (-nan /sec)
          order  4    : 0              (-nan /sec)
          order  5    : 0              (-nan /sec)
          order  6    : 0              (-nan /sec)
          order  7    : 0              (-nan /sec)
          order  8    : 0              (-nan /sec)
          order  9    : 0              (-nan /sec)
          order 10    : 0              (-nan /sec)
          order 11    : 0              (-nan /sec)
          order 12    : 0              (-nan /sec)
          order 13    : 10172          (2460 /sec)
          order 14    : 5017           (1634 /sec)
          order 15    : 1355           (661 /sec)
          order 16    : 8              (457 /sec)
          order 17    : 2              (265 /sec)
          order 18    : 0              (-nan /sec)
          order 19    : 0              (-nan /sec)
          order 20    : 0              (-nan /sec)
Canonicity checking   : 28.2309 s
Noncanonicity checking: 9.29416 s
Total canonicity time : 37.525 s
database reductions   : 15
restarts              : 255
conflicts             : 93949          (1106 /sec)
decisions             : 156569         (0.00 % random) (1844 /sec)
propagations          : 11018208       (129739 /sec)
conflict literals     : 5802272        (52.53 % deleted)
actual reward         : 0.108137
Memory used           : 226.00 MB
CPU time              : 84.9258 s

UNSATISFIABLE
